# Objective value = 47
WA1n 0
WA1p 0
WA2n 1
WA2p 0
WB1n 0
WB1p 0
WB2n 1
WB2p 0
WC1n 0
WC1p 0
WC2n 1
WC2p 0
WD1n 0
WD1p 1
WD2n 0
WD2p 1
WE1n 2
WE1p 0
WF1n 2
WF1p 0
WG1n 0
WG1p 5
WG2n 0
WG2p 1
WH1n 7
WH1p 0
WH2n 1
WH2p 0
WI1n 0
WI1p 7
WI2n 0
WI2p 1
WT1n 0
WT1p 7
WT2n 0
WT2p 1
5 7
a 0
b 0
c 0
d 0
e 0
f 0
g 1
h 1
i 0
j 0
k 1
l 1
m 0
n 0
o 1
p 1
q 1
r 1
